c FILE /home/rafael/Documents/HappySet/MIHS/inputs/happygen/output/graph_scale_free_k3_p0.3_v100_20241127_083811.txt
c SOURCE This is a scale-free graph formed for the happy graph colouring problem.
c DESCRIPTION It was generated using the problem generator of Rhyd Lewis
c
c GRAPH STATS
c Seed                             = 1828872475
c Number of Nodes                  = 100
c Number of colours k              = 3
c Number of pre-assignments        = 30
c Number of links per new node     = 5
c Density                          = 0.0979798
c 
c The degrees of nodes 1 to 100, respectively, are as follows 
c [38, 33, 33, 27, 25, 25, 22, 22, 19, 17, 17, 17, 16, 16, 15, 15, 14, 13, 13, 13, 12, 12, 12, 12, 12, 12, 
c  11, 11, 11, 10, 10, 9, 9, 9, 9, 9, 9, 9, 8, 8, 8, 8, 8, 8, 7, 7, 7, 7, 7, 7, 7, 
c  7, 7, 7, 7, 7, 7, 7, 6, 6, 6, 6, 6, 6, 6, 6, 6, 6, 6, 6, 6, 6, 6, 6, 5, 5, 
c  5, 5, 5, 5, 5, 5, 5, 5, 5, 5, 5, 5, 5, 5, 5, 5, 5, 5, 5, 5, 5, 5, 5, 5] 
c  
p edge 100 485 3
e 1 2
e 1 3
e 1 4
e 1 5
e 1 6
e 1 7
e 1 9
e 1 10
e 1 11
e 1 14
e 1 15
e 1 16
e 1 17
e 1 18
e 1 21
e 1 22
e 1 23
e 1 24
e 1 25
e 1 28
e 1 29
e 1 30
e 1 34
e 1 39
e 1 43
e 1 54
e 1 55
e 1 72
e 1 73
e 1 75
e 1 79
e 1 82
e 1 88
e 1 90
e 1 94
e 1 98
e 1 99
e 1 100
e 2 3
e 2 4
e 2 5
e 2 7
e 2 8
e 2 9
e 2 10
e 2 12
e 2 14
e 2 15
e 2 19
e 2 21
e 2 22
e 2 23
e 2 24
e 2 27
e 2 28
e 2 30
e 2 31
e 2 32
e 2 45
e 2 47
e 2 51
e 2 68
e 2 72
e 2 74
e 2 89
e 2 92
e 2 93
e 2 95
e 2 97
e 2 98
e 3 4
e 3 5
e 3 6
e 3 9
e 3 10
e 3 11
e 3 12
e 3 13
e 3 14
e 3 17
e 3 18
e 3 21
e 3 26
e 3 29
e 3 30
e 3 33
e 3 46
e 3 47
e 3 48
e 3 51
e 3 52
e 3 53
e 3 54
e 3 58
e 3 62
e 3 68
e 3 69
e 3 83
e 3 89
e 3 93
e 3 96
e 4 5
e 4 6
e 4 9
e 4 10
e 4 11
e 4 13
e 4 14
e 4 17
e 4 18
e 4 20
e 4 26
e 4 37
e 4 39
e 4 40
e 4 45
e 4 57
e 4 59
e 4 75
e 4 76
e 4 78
e 4 80
e 4 86
e 4 90
e 4 95
e 5 9
e 5 10
e 5 11
e 5 13
e 5 15
e 5 16
e 5 23
e 5 31
e 5 36
e 5 40
e 5 58
e 5 62
e 5 64
e 5 67
e 5 73
e 5 75
e 5 76
e 5 79
e 5 80
e 5 83
e 5 98
e 6 7
e 6 9
e 6 19
e 6 25
e 6 27
e 6 28
e 6 30
e 6 32
e 6 34
e 6 35
e 6 47
e 6 52
e 6 53
e 6 60
e 6 64
e 6 67
e 6 71
e 6 75
e 6 76
e 6 80
e 6 81
e 6 85
e 7 9
e 7 13
e 7 15
e 7 21
e 7 29
e 7 31
e 7 33
e 7 34
e 7 49
e 7 50
e 7 51
e 7 54
e 7 64
e 7 69
e 7 75
e 7 77
e 7 82
e 7 84
e 7 96
e 8 9
e 8 10
e 8 11
e 8 14
e 8 17
e 8 18
e 8 19
e 8 22
e 8 24
e 8 37
e 8 40
e 8 42
e 8 46
e 8 52
e 8 58
e 8 63
e 8 68
e 8 84
e 8 88
e 8 91
e 8 95
e 9 12
e 9 13
e 9 15
e 9 16
e 9 32
e 9 38
e 9 39
e 9 42
e 9 48
e 9 50
e 9 78
e 10 11
e 10 12
e 10 13
e 10 14
e 10 21
e 10 25
e 10 40
e 10 42
e 10 47
e 10 81
e 10 87
e 11 20
e 11 21
e 11 27
e 11 33
e 11 37
e 11 43
e 11 49
e 11 62
e 11 70
e 11 82
e 11 92
e 12 13
e 12 18
e 12 19
e 12 24
e 12 27
e 12 35
e 12 45
e 12 50
e 12 59
e 12 63
e 12 71
e 12 79
e 12 93
e 13 20
e 13 22
e 13 23
e 13 28
e 13 36
e 13 41
e 13 45
e 13 60
e 13 61
e 14 17
e 14 26
e 14 31
e 14 39
e 14 42
e 14 50
e 14 54
e 14 55
e 14 65
e 14 85
e 15 22
e 15 23
e 15 24
e 15 41
e 15 45
e 15 61
e 15 80
e 15 85
e 15 97
e 15 100
e 16 23
e 16 27
e 16 36
e 16 38
e 16 41
e 16 46
e 16 48
e 16 55
e 16 56
e 16 61
e 16 81
e 16 88
e 17 25
e 17 34
e 17 35
e 17 37
e 17 41
e 17 57
e 17 60
e 17 68
e 17 71
e 18 32
e 18 33
e 18 43
e 18 53
e 18 57
e 18 61
e 18 77
e 18 96
e 19 21
e 19 49
e 19 52
e 19 59
e 19 60
e 19 63
e 19 64
e 19 76
e 19 86
e 20 25
e 20 27
e 20 46
e 20 50
e 20 56
e 20 62
e 20 65
e 20 78
e 20 90
e 20 91
e 21 26
e 21 27
e 21 29
e 21 49
e 21 59
e 22 26
e 22 28
e 22 32
e 22 42
e 22 67
e 22 84
e 22 100
e 23 31
e 23 55
e 23 77
e 23 80
e 23 85
e 23 96
e 24 34
e 24 39
e 24 43
e 24 66
e 24 83
e 24 97
e 24 99
e 25 34
e 25 46
e 25 59
e 25 71
e 25 74
e 25 78
e 25 100
e 26 43
e 26 44
e 26 56
e 26 58
e 26 63
e 26 66
e 26 70
e 27 30
e 27 33
e 27 47
e 27 56
e 28 49
e 28 60
e 28 65
e 28 76
e 28 91
e 28 98
e 29 33
e 29 36
e 29 38
e 29 58
e 29 65
e 29 78
e 29 100
e 30 35
e 30 61
e 30 66
e 30 67
e 30 94
e 31 44
e 31 52
e 31 57
e 31 92
e 31 99
e 32 48
e 32 62
e 32 74
e 32 96
e 33 48
e 33 83
e 33 87
e 34 41
e 34 53
e 34 95
e 35 44
e 35 45
e 35 53
e 35 69
e 35 81
e 36 41
e 36 66
e 36 73
e 36 82
e 36 94
e 37 42
e 37 68
e 37 69
e 37 77
e 37 86
e 38 42
e 38 43
e 38 69
e 38 88
e 38 89
e 38 90
e 39 72
e 39 81
e 39 94
e 40 44
e 40 45
e 40 64
e 40 84
e 41 44
e 41 73
e 42 65
e 43 77
e 43 79
e 44 71
e 44 73
e 44 93
e 46 74
e 46 94
e 47 54
e 47 70
e 48 85
e 48 93
e 49 51
e 49 82
e 50 55
e 50 99
e 51 59
e 51 70
e 51 88
e 52 74
e 52 87
e 53 89
e 53 97
e 54 56
e 54 83
e 55 63
e 55 72
e 56 84
e 56 89
e 57 67
e 57 72
e 57 90
e 58 92
e 58 95
e 60 70
e 61 67
e 62 79
e 63 91
e 64 66
e 65 97
e 66 87
e 68 87
e 69 86
e 70 92
e 71 86
e 72 98
e 73 99
e 74 91
n 3 1
n 6 1
n 10 1
n 11 1
n 23 1
n 26 1
n 30 1
n 36 1
n 40 1
n 44 1
n 56 1
n 57 3
n 59 3
n 65 2
n 66 1
n 72 3
n 73 1
n 74 2
n 76 1
n 77 1
n 78 2
n 79 2
n 80 1
n 81 1
n 82 1
n 86 2
n 92 1
n 93 1
n 97 2
n 100 3
